; benchmark generated from python API
(set-info :status unknown)
(declare-fun x_months () Int)
(declare-fun x_beta () Int)
(assert
 (<= (- 1200) x_months))
(assert
 (>= 1199 x_months))
(assert
 (let ((?x4654 (mod x_months 48)))
 (let ((?x211 ((as const (Array Int Int)) 0)))
 (let ((?x213 (store ?x211 0 31)))
 (let ((?x216 (store ?x213 1 30)))
 (let ((?x218 (store ?x216 2 31)))
 (let ((?x220 (store ?x218 3 30)))
 (let ((?x222 (store ?x220 4 31)))
 (let ((?x224 (store ?x222 5 31)))
 (let ((?x226 (store ?x224 6 30)))
 (let ((?x228 (store ?x226 7 31)))
 (let ((?x230 (store ?x228 8 30)))
 (let ((?x232 (store ?x230 9 31)))
 (let ((?x234 (store ?x232 10 31)))
 (let ((?x237 (store ?x234 11 28)))
 (let ((?x239 (store ?x237 12 31)))
 (let ((?x241 (store ?x239 13 30)))
 (let ((?x243 (store ?x241 14 31)))
 (let ((?x245 (store ?x243 15 30)))
 (let ((?x247 (store ?x245 16 31)))
 (let ((?x249 (store ?x247 17 31)))
 (let ((?x251 (store ?x249 18 30)))
 (let ((?x253 (store ?x251 19 31)))
 (let ((?x255 (store ?x253 20 30)))
 (let ((?x257 (store ?x255 21 31)))
 (let ((?x259 (store ?x257 22 31)))
 (let ((?x261 (store ?x259 23 28)))
 (let ((?x263 (store ?x261 24 31)))
 (let ((?x265 (store ?x263 25 30)))
 (let ((?x267 (store ?x265 26 31)))
 (let ((?x269 (store ?x267 27 30)))
 (let ((?x270 (store ?x269 28 31)))
 (let ((?x272 (store ?x270 29 31)))
 (let ((?x273 (store ?x272 30 30)))
 (let ((?x274 (store ?x273 31 31)))
 (let ((?x276 (store ?x274 32 30)))
 (let ((?x278 (store ?x276 33 31)))
 (let ((?x280 (store ?x278 34 31)))
 (let ((?x282 (store ?x280 35 28)))
 (let ((?x284 (store ?x282 36 31)))
 (let ((?x286 (store ?x284 37 30)))
 (let ((?x288 (store ?x286 38 31)))
 (let ((?x290 (store ?x288 39 30)))
 (let ((?x292 (store ?x290 40 31)))
 (let ((?x294 (store ?x292 41 31)))
 (let ((?x296 (store ?x294 42 30)))
 (let ((?x298 (store ?x296 43 31)))
 (let ((?x300 (store ?x298 44 30)))
 (let ((?x302 (store ?x300 45 31)))
 (let ((?x304 (store ?x302 46 31)))
 (let ((?x306 (store ?x304 47 29)))
 (let ((?x2816 (select ?x306 ?x4654)))
 (let ((?x4796 (ite (or (= 22802 (+ x_months 24003)) (= 25202 (+ x_months 24003))) 28 ?x2816)))
 (let (($x5435 (<= 0 x_beta)))
 (and $x5435 (< x_beta ?x4796))))))))))))))))))))))))))))))))))))))))))))))))))))))))
(assert
 (let (($x5435 (<= 0 x_beta)))
 (or (> x_months (- (+ (* 2023 12) 1) 24003)) (and (= x_months (- (+ (* 2023 12) 1) 24003)) $x5435))))
(assert
 (let ((?x2861 (+ x_months 0)))
(let ((?x786 (mod ?x2861 48)))
(let ((?x4656 (ite (> 22803 (+ ?x2861 24003)) 1 (ite (<= 25203 (+ ?x2861 24003)) (- 1) 0))))
(let ((?x211 ((as const (Array Int Int)) 0)))
(let ((?x213 (store ?x211 0 31)))
(let ((?x216 (store ?x213 1 30)))
(let ((?x218 (store ?x216 2 31)))
(let ((?x220 (store ?x218 3 30)))
(let ((?x222 (store ?x220 4 31)))
(let ((?x224 (store ?x222 5 31)))
(let ((?x226 (store ?x224 6 30)))
(let ((?x228 (store ?x226 7 31)))
(let ((?x230 (store ?x228 8 30)))
(let ((?x232 (store ?x230 9 31)))
(let ((?x234 (store ?x232 10 31)))
(let ((?x237 (store ?x234 11 28)))
(let ((?x239 (store ?x237 12 31)))
(let ((?x241 (store ?x239 13 30)))
(let ((?x243 (store ?x241 14 31)))
(let ((?x245 (store ?x243 15 30)))
(let ((?x247 (store ?x245 16 31)))
(let ((?x249 (store ?x247 17 31)))
(let ((?x251 (store ?x249 18 30)))
(let ((?x253 (store ?x251 19 31)))
(let ((?x255 (store ?x253 20 30)))
(let ((?x257 (store ?x255 21 31)))
(let ((?x259 (store ?x257 22 31)))
(let ((?x261 (store ?x259 23 28)))
(let ((?x263 (store ?x261 24 31)))
(let ((?x265 (store ?x263 25 30)))
(let ((?x267 (store ?x265 26 31)))
(let ((?x269 (store ?x267 27 30)))
(let ((?x270 (store ?x269 28 31)))
(let ((?x272 (store ?x270 29 31)))
(let ((?x273 (store ?x272 30 30)))
(let ((?x274 (store ?x273 31 31)))
(let ((?x276 (store ?x274 32 30)))
(let ((?x278 (store ?x276 33 31)))
(let ((?x280 (store ?x278 34 31)))
(let ((?x282 (store ?x280 35 28)))
(let ((?x284 (store ?x282 36 31)))
(let ((?x286 (store ?x284 37 30)))
(let ((?x288 (store ?x286 38 31)))
(let ((?x290 (store ?x288 39 30)))
(let ((?x292 (store ?x290 40 31)))
(let ((?x294 (store ?x292 41 31)))
(let ((?x296 (store ?x294 42 30)))
(let ((?x298 (store ?x296 43 31)))
(let ((?x300 (store ?x298 44 30)))
(let ((?x302 (store ?x300 45 31)))
(let ((?x304 (store ?x302 46 31)))
(let ((?x306 (store ?x304 47 29)))
(let ((?x5314 (ite (or (= 22802 (+ ?x2861 24003)) (= 25202 (+ ?x2861 24003))) 28 (select ?x306 ?x786))))
(let ((?x5589 (- ?x5314 1)))
(let (($x3626 (> 0 x_beta)))
(let ((?x312 (store (store (store (store ?x211 0 0) 1 31) 2 61) 3 92)))
(let ((?x320 (store (store (store (store ?x312 4 122) 5 153) 6 184) 7 214)))
(let ((?x328 (store (store (store (store ?x320 8 245) 9 275) 10 306) 11 337)))
(let ((?x336 (store (store (store (store ?x328 12 365) 13 396) 14 426) 15 457)))
(let ((?x344 (store (store (store (store ?x336 16 487) 17 518) 18 549) 19 579)))
(let ((?x352 (store (store (store (store ?x344 20 610) 21 640) 22 671) 23 702)))
(let ((?x360 (store (store (store (store ?x352 24 730) 25 761) 26 791) 27 822)))
(let ((?x368 (store (store (store (store ?x360 28 852) 29 883) 30 914) 31 944)))
(let ((?x376 (store (store (store (store ?x368 32 975) 33 1005) 34 1036) 35 1067)))
(let ((?x384 (store (store (store (store ?x376 36 1095) 37 1126) 38 1156) 39 1187)))
(let ((?x392 (store (store (store (store ?x384 40 1217) 41 1248) 42 1279) 43 1309)))
(let ((?x400 (store (store (store (store ?x392 44 1340) 45 1370) 46 1401) 47 1432)))
(let ((?x6364 (+ (select ?x400 ?x786) (ite $x3626 0 (ite (> x_beta ?x5589) ?x5589 x_beta)))))
(let ((?x4134 (+ (+ ?x6364 ?x4656) 31)))
(let ((?x5896 (+ ?x2861 (* (div ?x4134 1461) 48))))
(let ((?x4655 (+ (+ ?x5896 (- 1 ?x786)) 24003)))
(let ((?x4773 (select ?x400 1)))
(let ((?x1453 (mod ?x4134 1461)))
(let (($x3152 (>= ?x1453 (+ ?x4773 (ite (> 22803 ?x4655) 1 (ite (<= 25203 ?x4655) (- 1) 0))))))
(let ((?x11142 (ite (> 22803 (+ (+ ?x5896 (- 2 ?x786)) 24003)) 1 (ite (<= 25203 (+ (+ ?x5896 (- 2 ?x786)) 24003)) (- 1) 0))))
(let ((?x883 (select ?x400 2)))
(let ((?x2165 (ite (> 22803 (+ (+ ?x5896 (- 3 ?x786)) 24003)) 1 (ite (<= 25203 (+ (+ ?x5896 (- 3 ?x786)) 24003)) (- 1) 0))))
(let ((?x4596 (select ?x400 3)))
(let ((?x4840 (ite (>= ?x1453 (+ ?x4596 ?x2165)) 3 (ite (>= ?x1453 (+ ?x883 ?x11142)) 2 (ite $x3152 1 0)))))
(let ((?x6792 (ite (> 22803 (+ (+ ?x5896 (- 4 ?x786)) 24003)) 1 (ite (<= 25203 (+ (+ ?x5896 (- 4 ?x786)) 24003)) (- 1) 0))))
(let ((?x2804 (select ?x400 4)))
(let ((?x4965 (ite (> 22803 (+ (+ ?x5896 (- 5 ?x786)) 24003)) 1 (ite (<= 25203 (+ (+ ?x5896 (- 5 ?x786)) 24003)) (- 1) 0))))
(let ((?x600 (select ?x400 5)))
(let ((?x2511 (ite (>= ?x1453 (+ ?x600 ?x4965)) 5 (ite (>= ?x1453 (+ ?x2804 ?x6792)) 4 ?x4840))))
(let ((?x2430 (ite (> 22803 (+ (+ ?x5896 (- 6 ?x786)) 24003)) 1 (ite (<= 25203 (+ (+ ?x5896 (- 6 ?x786)) 24003)) (- 1) 0))))
(let ((?x2437 (select ?x400 6)))
(let ((?x1879 (ite (> 22803 (+ (+ ?x5896 (- 7 ?x786)) 24003)) 1 (ite (<= 25203 (+ (+ ?x5896 (- 7 ?x786)) 24003)) (- 1) 0))))
(let ((?x1984 (select ?x400 7)))
(let ((?x1236 (ite (>= ?x1453 (+ ?x1984 ?x1879)) 7 (ite (>= ?x1453 (+ ?x2437 ?x2430)) 6 ?x2511))))
(let ((?x708 (ite (> 22803 (+ (+ ?x5896 (- 8 ?x786)) 24003)) 1 (ite (<= 25203 (+ (+ ?x5896 (- 8 ?x786)) 24003)) (- 1) 0))))
(let ((?x2295 (select ?x400 8)))
(let ((?x1543 (ite (> 22803 (+ (+ ?x5896 (- 9 ?x786)) 24003)) 1 (ite (<= 25203 (+ (+ ?x5896 (- 9 ?x786)) 24003)) (- 1) 0))))
(let ((?x3391 (select ?x400 9)))
(let ((?x5431 (ite (>= ?x1453 (+ ?x3391 ?x1543)) 9 (ite (>= ?x1453 (+ ?x2295 ?x708)) 8 ?x1236))))
(let ((?x5952 (ite (> 22803 (+ (+ ?x5896 (- 10 ?x786)) 24003)) 1 (ite (<= 25203 (+ (+ ?x5896 (- 10 ?x786)) 24003)) (- 1) 0))))
(let ((?x2822 (select ?x400 10)))
(let ((?x473 (ite (> 22803 (+ (+ ?x5896 (- 11 ?x786)) 24003)) 1 (ite (<= 25203 (+ (+ ?x5896 (- 11 ?x786)) 24003)) (- 1) 0))))
(let ((?x3520 (select ?x400 11)))
(let ((?x2034 (ite (>= ?x1453 (+ ?x3520 ?x473)) 11 (ite (>= ?x1453 (+ ?x2822 ?x5952)) 10 ?x5431))))
(let ((?x5022 (ite (> 22803 (+ (+ ?x5896 (- 12 ?x786)) 24003)) 1 (ite (<= 25203 (+ (+ ?x5896 (- 12 ?x786)) 24003)) (- 1) 0))))
(let ((?x4132 (select ?x400 12)))
(let ((?x2014 (ite (> 22803 (+ (+ ?x5896 (- 13 ?x786)) 24003)) 1 (ite (<= 25203 (+ (+ ?x5896 (- 13 ?x786)) 24003)) (- 1) 0))))
(let ((?x4154 (select ?x400 13)))
(let ((?x2307 (ite (>= ?x1453 (+ ?x4154 ?x2014)) 13 (ite (>= ?x1453 (+ ?x4132 ?x5022)) 12 ?x2034))))
(let ((?x5397 (ite (> 22803 (+ (+ ?x5896 (- 14 ?x786)) 24003)) 1 (ite (<= 25203 (+ (+ ?x5896 (- 14 ?x786)) 24003)) (- 1) 0))))
(let ((?x2931 (select ?x400 14)))
(let ((?x5667 (ite (> 22803 (+ (+ ?x5896 (- 15 ?x786)) 24003)) 1 (ite (<= 25203 (+ (+ ?x5896 (- 15 ?x786)) 24003)) (- 1) 0))))
(let ((?x4534 (select ?x400 15)))
(let ((?x5837 (ite (>= ?x1453 (+ ?x4534 ?x5667)) 15 (ite (>= ?x1453 (+ ?x2931 ?x5397)) 14 ?x2307))))
(let ((?x6223 (ite (> 22803 (+ (+ ?x5896 (- 16 ?x786)) 24003)) 1 (ite (<= 25203 (+ (+ ?x5896 (- 16 ?x786)) 24003)) (- 1) 0))))
(let ((?x3306 (select ?x400 16)))
(let ((?x5614 (ite (> 22803 (+ (+ ?x5896 (- 17 ?x786)) 24003)) 1 (ite (<= 25203 (+ (+ ?x5896 (- 17 ?x786)) 24003)) (- 1) 0))))
(let ((?x4357 (select ?x400 17)))
(let ((?x3959 (ite (>= ?x1453 (+ ?x4357 ?x5614)) 17 (ite (>= ?x1453 (+ ?x3306 ?x6223)) 16 ?x5837))))
(let ((?x1633 (ite (> 22803 (+ (+ ?x5896 (- 18 ?x786)) 24003)) 1 (ite (<= 25203 (+ (+ ?x5896 (- 18 ?x786)) 24003)) (- 1) 0))))
(let ((?x1558 (select ?x400 18)))
(let ((?x4330 (ite (> 22803 (+ (+ ?x5896 (- 19 ?x786)) 24003)) 1 (ite (<= 25203 (+ (+ ?x5896 (- 19 ?x786)) 24003)) (- 1) 0))))
(let ((?x5127 (select ?x400 19)))
(let ((?x4694 (ite (>= ?x1453 (+ ?x5127 ?x4330)) 19 (ite (>= ?x1453 (+ ?x1558 ?x1633)) 18 ?x3959))))
(let ((?x3249 (ite (> 22803 (+ (+ ?x5896 (- 20 ?x786)) 24003)) 1 (ite (<= 25203 (+ (+ ?x5896 (- 20 ?x786)) 24003)) (- 1) 0))))
(let ((?x5559 (select ?x400 20)))
(let ((?x6442 (ite (> 22803 (+ (+ ?x5896 (- 21 ?x786)) 24003)) 1 (ite (<= 25203 (+ (+ ?x5896 (- 21 ?x786)) 24003)) (- 1) 0))))
(let ((?x6857 (select ?x400 21)))
(let ((?x3682 (ite (>= ?x1453 (+ ?x6857 ?x6442)) 21 (ite (>= ?x1453 (+ ?x5559 ?x3249)) 20 ?x4694))))
(let ((?x4741 (ite (> 22803 (+ (+ ?x5896 (- 22 ?x786)) 24003)) 1 (ite (<= 25203 (+ (+ ?x5896 (- 22 ?x786)) 24003)) (- 1) 0))))
(let ((?x949 (select ?x400 22)))
(let ((?x4486 (ite (> 22803 (+ (+ ?x5896 (- 23 ?x786)) 24003)) 1 (ite (<= 25203 (+ (+ ?x5896 (- 23 ?x786)) 24003)) (- 1) 0))))
(let ((?x3664 (select ?x400 23)))
(let ((?x6640 (ite (>= ?x1453 (+ ?x3664 ?x4486)) 23 (ite (>= ?x1453 (+ ?x949 ?x4741)) 22 ?x3682))))
(let ((?x1966 (ite (> 22803 (+ (+ ?x5896 (- 24 ?x786)) 24003)) 1 (ite (<= 25203 (+ (+ ?x5896 (- 24 ?x786)) 24003)) (- 1) 0))))
(let ((?x4395 (select ?x400 24)))
(let ((?x3760 (ite (> 22803 (+ (+ ?x5896 (- 25 ?x786)) 24003)) 1 (ite (<= 25203 (+ (+ ?x5896 (- 25 ?x786)) 24003)) (- 1) 0))))
(let ((?x6078 (select ?x400 25)))
(let ((?x4720 (ite (>= ?x1453 (+ ?x6078 ?x3760)) 25 (ite (>= ?x1453 (+ ?x4395 ?x1966)) 24 ?x6640))))
(let ((?x5578 (ite (> 22803 (+ (+ ?x5896 (- 26 ?x786)) 24003)) 1 (ite (<= 25203 (+ (+ ?x5896 (- 26 ?x786)) 24003)) (- 1) 0))))
(let ((?x5292 (select ?x400 26)))
(let ((?x2086 (ite (> 22803 (+ (+ ?x5896 (- 27 ?x786)) 24003)) 1 (ite (<= 25203 (+ (+ ?x5896 (- 27 ?x786)) 24003)) (- 1) 0))))
(let ((?x2260 (select ?x400 27)))
(let ((?x5438 (ite (>= ?x1453 (+ ?x2260 ?x2086)) 27 (ite (>= ?x1453 (+ ?x5292 ?x5578)) 26 ?x4720))))
(let ((?x408 (ite (> 22803 (+ (+ ?x5896 (- 28 ?x786)) 24003)) 1 (ite (<= 25203 (+ (+ ?x5896 (- 28 ?x786)) 24003)) (- 1) 0))))
(let ((?x4929 (select ?x400 28)))
(let ((?x1644 (ite (> 22803 (+ (+ ?x5896 (- 29 ?x786)) 24003)) 1 (ite (<= 25203 (+ (+ ?x5896 (- 29 ?x786)) 24003)) (- 1) 0))))
(let ((?x1310 (select ?x400 29)))
(let ((?x4776 (ite (>= ?x1453 (+ ?x1310 ?x1644)) 29 (ite (>= ?x1453 (+ ?x4929 ?x408)) 28 ?x5438))))
(let ((?x2973 (ite (> 22803 (+ (+ ?x5896 (- 30 ?x786)) 24003)) 1 (ite (<= 25203 (+ (+ ?x5896 (- 30 ?x786)) 24003)) (- 1) 0))))
(let ((?x3168 (select ?x400 30)))
(let ((?x5114 (ite (> 22803 (+ (+ ?x5896 (- 31 ?x786)) 24003)) 1 (ite (<= 25203 (+ (+ ?x5896 (- 31 ?x786)) 24003)) (- 1) 0))))
(let ((?x4751 (select ?x400 31)))
(let ((?x4066 (ite (>= ?x1453 (+ ?x4751 ?x5114)) 31 (ite (>= ?x1453 (+ ?x3168 ?x2973)) 30 ?x4776))))
(let ((?x5356 (ite (> 22803 (+ (+ ?x5896 (- 32 ?x786)) 24003)) 1 (ite (<= 25203 (+ (+ ?x5896 (- 32 ?x786)) 24003)) (- 1) 0))))
(let ((?x5277 (select ?x400 32)))
(let ((?x5068 (ite (> 22803 (+ (+ ?x5896 (- 33 ?x786)) 24003)) 1 (ite (<= 25203 (+ (+ ?x5896 (- 33 ?x786)) 24003)) (- 1) 0))))
(let ((?x1958 (select ?x400 33)))
(let ((?x4184 (ite (>= ?x1453 (+ ?x1958 ?x5068)) 33 (ite (>= ?x1453 (+ ?x5277 ?x5356)) 32 ?x4066))))
(let ((?x4674 (ite (> 22803 (+ (+ ?x5896 (- 34 ?x786)) 24003)) 1 (ite (<= 25203 (+ (+ ?x5896 (- 34 ?x786)) 24003)) (- 1) 0))))
(let ((?x6190 (select ?x400 34)))
(let ((?x5055 (ite (> 22803 (+ (+ ?x5896 (- 35 ?x786)) 24003)) 1 (ite (<= 25203 (+ (+ ?x5896 (- 35 ?x786)) 24003)) (- 1) 0))))
(let ((?x4586 (select ?x400 35)))
(let ((?x5532 (ite (>= ?x1453 (+ ?x4586 ?x5055)) 35 (ite (>= ?x1453 (+ ?x6190 ?x4674)) 34 ?x4184))))
(let ((?x6300 (ite (> 22803 (+ (+ ?x5896 (- 36 ?x786)) 24003)) 1 (ite (<= 25203 (+ (+ ?x5896 (- 36 ?x786)) 24003)) (- 1) 0))))
(let ((?x4877 (select ?x400 36)))
(let ((?x2360 (ite (> 22803 (+ (+ ?x5896 (- 37 ?x786)) 24003)) 1 (ite (<= 25203 (+ (+ ?x5896 (- 37 ?x786)) 24003)) (- 1) 0))))
(let ((?x5580 (select ?x400 37)))
(let ((?x5367 (ite (>= ?x1453 (+ ?x5580 ?x2360)) 37 (ite (>= ?x1453 (+ ?x4877 ?x6300)) 36 ?x5532))))
(let ((?x6431 (ite (> 22803 (+ (+ ?x5896 (- 38 ?x786)) 24003)) 1 (ite (<= 25203 (+ (+ ?x5896 (- 38 ?x786)) 24003)) (- 1) 0))))
(let ((?x4126 (select ?x400 38)))
(let ((?x3961 (ite (> 22803 (+ (+ ?x5896 (- 39 ?x786)) 24003)) 1 (ite (<= 25203 (+ (+ ?x5896 (- 39 ?x786)) 24003)) (- 1) 0))))
(let ((?x11124 (select ?x400 39)))
(let ((?x5551 (ite (>= ?x1453 (+ ?x11124 ?x3961)) 39 (ite (>= ?x1453 (+ ?x4126 ?x6431)) 38 ?x5367))))
(let ((?x3782 (ite (> 22803 (+ (+ ?x5896 (- 40 ?x786)) 24003)) 1 (ite (<= 25203 (+ (+ ?x5896 (- 40 ?x786)) 24003)) (- 1) 0))))
(let ((?x6930 (select ?x400 40)))
(let ((?x4661 (ite (> 22803 (+ (+ ?x5896 (- 41 ?x786)) 24003)) 1 (ite (<= 25203 (+ (+ ?x5896 (- 41 ?x786)) 24003)) (- 1) 0))))
(let ((?x3350 (select ?x400 41)))
(let ((?x6607 (ite (>= ?x1453 (+ ?x3350 ?x4661)) 41 (ite (>= ?x1453 (+ ?x6930 ?x3782)) 40 ?x5551))))
(let ((?x2486 (ite (> 22803 (+ (+ ?x5896 (- 42 ?x786)) 24003)) 1 (ite (<= 25203 (+ (+ ?x5896 (- 42 ?x786)) 24003)) (- 1) 0))))
(let ((?x5399 (select ?x400 42)))
(let ((?x2423 (ite (> 22803 (+ (+ ?x5896 (- 43 ?x786)) 24003)) 1 (ite (<= 25203 (+ (+ ?x5896 (- 43 ?x786)) 24003)) (- 1) 0))))
(let ((?x4431 (select ?x400 43)))
(let ((?x5036 (ite (>= ?x1453 (+ ?x4431 ?x2423)) 43 (ite (>= ?x1453 (+ ?x5399 ?x2486)) 42 ?x6607))))
(let ((?x4392 (ite (> 22803 (+ (+ ?x5896 (- 44 ?x786)) 24003)) 1 (ite (<= 25203 (+ (+ ?x5896 (- 44 ?x786)) 24003)) (- 1) 0))))
(let ((?x3478 (select ?x400 44)))
(let ((?x6799 (ite (> 22803 (+ (+ ?x5896 (- 45 ?x786)) 24003)) 1 (ite (<= 25203 (+ (+ ?x5896 (- 45 ?x786)) 24003)) (- 1) 0))))
(let ((?x2911 (select ?x400 45)))
(let ((?x3785 (ite (>= ?x1453 (+ ?x2911 ?x6799)) 45 (ite (>= ?x1453 (+ ?x3478 ?x4392)) 44 ?x5036))))
(let ((?x5501 (ite (> 22803 (+ (+ ?x5896 (- 46 ?x786)) 24003)) 1 (ite (<= 25203 (+ (+ ?x5896 (- 46 ?x786)) 24003)) (- 1) 0))))
(let ((?x6924 (select ?x400 46)))
(let ((?x4211 (ite (> 22803 (+ (+ ?x5896 (- 47 ?x786)) 24003)) 1 (ite (<= 25203 (+ (+ ?x5896 (- 47 ?x786)) 24003)) (- 1) 0))))
(let ((?x928 (select ?x400 47)))
(let ((?x4297 (ite (>= ?x1453 (+ ?x928 ?x4211)) 47 (ite (>= ?x1453 (+ ?x6924 ?x5501)) 46 ?x3785))))
(let ((?x2638 (+ ?x5896 (- ?x4297 ?x786))))
(let ((?x5436 (+ ?x2638 24003)))
(let ((?x4372 (+ (select ?x400 ?x4297) (ite (> 22803 ?x5436) 1 (ite (<= 25203 ?x5436) (- 1) 0)))))
(let ((?x5462 (- ?x1453 ?x4372)))
(let ((?x977 (ite (or (= 22802 ?x5436) (= 25202 ?x5436)) 28 (select ?x306 ?x4297))))
(let ((?x6492 (+ x_months 1)))
(let ((?x1843 (mod ?x6492 48)))
(let ((?x1087 (ite (> 22803 (+ ?x6492 24003)) 1 (ite (<= 25203 (+ ?x6492 24003)) (- 1) 0))))
(let ((?x2547 (ite (or (= 22802 (+ ?x6492 24003)) (= 25202 (+ ?x6492 24003))) 28 (select ?x306 ?x1843))))
(let ((?x6229 (- ?x2547 1)))
(let ((?x5083 (+ (select ?x400 ?x1843) (ite $x3626 0 (ite (> x_beta ?x6229) ?x6229 x_beta)))))
(let ((?x4967 (+ (+ ?x5083 ?x1087) 0)))
(let ((?x4854 (+ ?x6492 (* (div ?x4967 1461) 48))))
(let ((?x4322 (+ (+ ?x4854 (- 1 ?x1843)) 24003)))
(let ((?x5561 (mod ?x4967 1461)))
(let (($x3941 (>= ?x5561 (+ ?x4773 (ite (> 22803 ?x4322) 1 (ite (<= 25203 ?x4322) (- 1) 0))))))
(let ((?x4626 (ite (> 22803 (+ (+ ?x4854 (- 2 ?x1843)) 24003)) 1 (ite (<= 25203 (+ (+ ?x4854 (- 2 ?x1843)) 24003)) (- 1) 0))))
(let ((?x651 (ite (> 22803 (+ (+ ?x4854 (- 3 ?x1843)) 24003)) 1 (ite (<= 25203 (+ (+ ?x4854 (- 3 ?x1843)) 24003)) (- 1) 0))))
(let ((?x910 (ite (>= ?x5561 (+ ?x4596 ?x651)) 3 (ite (>= ?x5561 (+ ?x883 ?x4626)) 2 (ite $x3941 1 0)))))
(let ((?x3851 (ite (> 22803 (+ (+ ?x4854 (- 4 ?x1843)) 24003)) 1 (ite (<= 25203 (+ (+ ?x4854 (- 4 ?x1843)) 24003)) (- 1) 0))))
(let ((?x1240 (ite (> 22803 (+ (+ ?x4854 (- 5 ?x1843)) 24003)) 1 (ite (<= 25203 (+ (+ ?x4854 (- 5 ?x1843)) 24003)) (- 1) 0))))
(let ((?x4235 (ite (>= ?x5561 (+ ?x600 ?x1240)) 5 (ite (>= ?x5561 (+ ?x2804 ?x3851)) 4 ?x910))))
(let ((?x3149 (ite (> 22803 (+ (+ ?x4854 (- 6 ?x1843)) 24003)) 1 (ite (<= 25203 (+ (+ ?x4854 (- 6 ?x1843)) 24003)) (- 1) 0))))
(let ((?x1207 (ite (> 22803 (+ (+ ?x4854 (- 7 ?x1843)) 24003)) 1 (ite (<= 25203 (+ (+ ?x4854 (- 7 ?x1843)) 24003)) (- 1) 0))))
(let ((?x2434 (ite (>= ?x5561 (+ ?x1984 ?x1207)) 7 (ite (>= ?x5561 (+ ?x2437 ?x3149)) 6 ?x4235))))
(let ((?x1766 (ite (> 22803 (+ (+ ?x4854 (- 8 ?x1843)) 24003)) 1 (ite (<= 25203 (+ (+ ?x4854 (- 8 ?x1843)) 24003)) (- 1) 0))))
(let ((?x2841 (ite (> 22803 (+ (+ ?x4854 (- 9 ?x1843)) 24003)) 1 (ite (<= 25203 (+ (+ ?x4854 (- 9 ?x1843)) 24003)) (- 1) 0))))
(let ((?x2739 (ite (>= ?x5561 (+ ?x3391 ?x2841)) 9 (ite (>= ?x5561 (+ ?x2295 ?x1766)) 8 ?x2434))))
(let ((?x4437 (ite (> 22803 (+ (+ ?x4854 (- 10 ?x1843)) 24003)) 1 (ite (<= 25203 (+ (+ ?x4854 (- 10 ?x1843)) 24003)) (- 1) 0))))
(let ((?x2410 (ite (> 22803 (+ (+ ?x4854 (- 11 ?x1843)) 24003)) 1 (ite (<= 25203 (+ (+ ?x4854 (- 11 ?x1843)) 24003)) (- 1) 0))))
(let ((?x4043 (ite (>= ?x5561 (+ ?x3520 ?x2410)) 11 (ite (>= ?x5561 (+ ?x2822 ?x4437)) 10 ?x2739))))
(let ((?x4321 (ite (> 22803 (+ (+ ?x4854 (- 12 ?x1843)) 24003)) 1 (ite (<= 25203 (+ (+ ?x4854 (- 12 ?x1843)) 24003)) (- 1) 0))))
(let ((?x4470 (ite (> 22803 (+ (+ ?x4854 (- 13 ?x1843)) 24003)) 1 (ite (<= 25203 (+ (+ ?x4854 (- 13 ?x1843)) 24003)) (- 1) 0))))
(let ((?x5232 (ite (>= ?x5561 (+ ?x4154 ?x4470)) 13 (ite (>= ?x5561 (+ ?x4132 ?x4321)) 12 ?x4043))))
(let ((?x4643 (ite (> 22803 (+ (+ ?x4854 (- 14 ?x1843)) 24003)) 1 (ite (<= 25203 (+ (+ ?x4854 (- 14 ?x1843)) 24003)) (- 1) 0))))
(let ((?x1337 (ite (> 22803 (+ (+ ?x4854 (- 15 ?x1843)) 24003)) 1 (ite (<= 25203 (+ (+ ?x4854 (- 15 ?x1843)) 24003)) (- 1) 0))))
(let ((?x4960 (ite (>= ?x5561 (+ ?x4534 ?x1337)) 15 (ite (>= ?x5561 (+ ?x2931 ?x4643)) 14 ?x5232))))
(let ((?x6860 (ite (> 22803 (+ (+ ?x4854 (- 16 ?x1843)) 24003)) 1 (ite (<= 25203 (+ (+ ?x4854 (- 16 ?x1843)) 24003)) (- 1) 0))))
(let ((?x3184 (ite (> 22803 (+ (+ ?x4854 (- 17 ?x1843)) 24003)) 1 (ite (<= 25203 (+ (+ ?x4854 (- 17 ?x1843)) 24003)) (- 1) 0))))
(let ((?x4390 (ite (>= ?x5561 (+ ?x4357 ?x3184)) 17 (ite (>= ?x5561 (+ ?x3306 ?x6860)) 16 ?x4960))))
(let ((?x3268 (ite (> 22803 (+ (+ ?x4854 (- 18 ?x1843)) 24003)) 1 (ite (<= 25203 (+ (+ ?x4854 (- 18 ?x1843)) 24003)) (- 1) 0))))
(let ((?x5072 (ite (> 22803 (+ (+ ?x4854 (- 19 ?x1843)) 24003)) 1 (ite (<= 25203 (+ (+ ?x4854 (- 19 ?x1843)) 24003)) (- 1) 0))))
(let ((?x2136 (ite (>= ?x5561 (+ ?x5127 ?x5072)) 19 (ite (>= ?x5561 (+ ?x1558 ?x3268)) 18 ?x4390))))
(let ((?x3795 (ite (> 22803 (+ (+ ?x4854 (- 20 ?x1843)) 24003)) 1 (ite (<= 25203 (+ (+ ?x4854 (- 20 ?x1843)) 24003)) (- 1) 0))))
(let ((?x6700 (ite (> 22803 (+ (+ ?x4854 (- 21 ?x1843)) 24003)) 1 (ite (<= 25203 (+ (+ ?x4854 (- 21 ?x1843)) 24003)) (- 1) 0))))
(let ((?x4736 (ite (>= ?x5561 (+ ?x6857 ?x6700)) 21 (ite (>= ?x5561 (+ ?x5559 ?x3795)) 20 ?x2136))))
(let ((?x2117 (ite (> 22803 (+ (+ ?x4854 (- 22 ?x1843)) 24003)) 1 (ite (<= 25203 (+ (+ ?x4854 (- 22 ?x1843)) 24003)) (- 1) 0))))
(let ((?x6524 (ite (> 22803 (+ (+ ?x4854 (- 23 ?x1843)) 24003)) 1 (ite (<= 25203 (+ (+ ?x4854 (- 23 ?x1843)) 24003)) (- 1) 0))))
(let ((?x6486 (ite (>= ?x5561 (+ ?x3664 ?x6524)) 23 (ite (>= ?x5561 (+ ?x949 ?x2117)) 22 ?x4736))))
(let ((?x1055 (ite (> 22803 (+ (+ ?x4854 (- 24 ?x1843)) 24003)) 1 (ite (<= 25203 (+ (+ ?x4854 (- 24 ?x1843)) 24003)) (- 1) 0))))
(let ((?x2698 (ite (> 22803 (+ (+ ?x4854 (- 25 ?x1843)) 24003)) 1 (ite (<= 25203 (+ (+ ?x4854 (- 25 ?x1843)) 24003)) (- 1) 0))))
(let ((?x6592 (ite (>= ?x5561 (+ ?x6078 ?x2698)) 25 (ite (>= ?x5561 (+ ?x4395 ?x1055)) 24 ?x6486))))
(let ((?x5065 (ite (> 22803 (+ (+ ?x4854 (- 26 ?x1843)) 24003)) 1 (ite (<= 25203 (+ (+ ?x4854 (- 26 ?x1843)) 24003)) (- 1) 0))))
(let ((?x4679 (ite (> 22803 (+ (+ ?x4854 (- 27 ?x1843)) 24003)) 1 (ite (<= 25203 (+ (+ ?x4854 (- 27 ?x1843)) 24003)) (- 1) 0))))
(let ((?x6163 (ite (>= ?x5561 (+ ?x2260 ?x4679)) 27 (ite (>= ?x5561 (+ ?x5292 ?x5065)) 26 ?x6592))))
(let ((?x6441 (ite (> 22803 (+ (+ ?x4854 (- 28 ?x1843)) 24003)) 1 (ite (<= 25203 (+ (+ ?x4854 (- 28 ?x1843)) 24003)) (- 1) 0))))
(let ((?x5192 (ite (> 22803 (+ (+ ?x4854 (- 29 ?x1843)) 24003)) 1 (ite (<= 25203 (+ (+ ?x4854 (- 29 ?x1843)) 24003)) (- 1) 0))))
(let ((?x5981 (ite (>= ?x5561 (+ ?x1310 ?x5192)) 29 (ite (>= ?x5561 (+ ?x4929 ?x6441)) 28 ?x6163))))
(let ((?x5662 (ite (> 22803 (+ (+ ?x4854 (- 30 ?x1843)) 24003)) 1 (ite (<= 25203 (+ (+ ?x4854 (- 30 ?x1843)) 24003)) (- 1) 0))))
(let ((?x5967 (ite (> 22803 (+ (+ ?x4854 (- 31 ?x1843)) 24003)) 1 (ite (<= 25203 (+ (+ ?x4854 (- 31 ?x1843)) 24003)) (- 1) 0))))
(let ((?x5198 (ite (>= ?x5561 (+ ?x4751 ?x5967)) 31 (ite (>= ?x5561 (+ ?x3168 ?x5662)) 30 ?x5981))))
(let ((?x4163 (ite (> 22803 (+ (+ ?x4854 (- 32 ?x1843)) 24003)) 1 (ite (<= 25203 (+ (+ ?x4854 (- 32 ?x1843)) 24003)) (- 1) 0))))
(let ((?x4849 (ite (> 22803 (+ (+ ?x4854 (- 33 ?x1843)) 24003)) 1 (ite (<= 25203 (+ (+ ?x4854 (- 33 ?x1843)) 24003)) (- 1) 0))))
(let ((?x6427 (ite (>= ?x5561 (+ ?x1958 ?x4849)) 33 (ite (>= ?x5561 (+ ?x5277 ?x4163)) 32 ?x5198))))
(let ((?x2060 (ite (> 22803 (+ (+ ?x4854 (- 34 ?x1843)) 24003)) 1 (ite (<= 25203 (+ (+ ?x4854 (- 34 ?x1843)) 24003)) (- 1) 0))))
(let ((?x1470 (ite (> 22803 (+ (+ ?x4854 (- 35 ?x1843)) 24003)) 1 (ite (<= 25203 (+ (+ ?x4854 (- 35 ?x1843)) 24003)) (- 1) 0))))
(let ((?x2477 (ite (>= ?x5561 (+ ?x4586 ?x1470)) 35 (ite (>= ?x5561 (+ ?x6190 ?x2060)) 34 ?x6427))))
(let ((?x6142 (ite (> 22803 (+ (+ ?x4854 (- 36 ?x1843)) 24003)) 1 (ite (<= 25203 (+ (+ ?x4854 (- 36 ?x1843)) 24003)) (- 1) 0))))
(let ((?x6354 (ite (> 22803 (+ (+ ?x4854 (- 37 ?x1843)) 24003)) 1 (ite (<= 25203 (+ (+ ?x4854 (- 37 ?x1843)) 24003)) (- 1) 0))))
(let ((?x4803 (ite (>= ?x5561 (+ ?x5580 ?x6354)) 37 (ite (>= ?x5561 (+ ?x4877 ?x6142)) 36 ?x2477))))
(let ((?x5676 (ite (> 22803 (+ (+ ?x4854 (- 38 ?x1843)) 24003)) 1 (ite (<= 25203 (+ (+ ?x4854 (- 38 ?x1843)) 24003)) (- 1) 0))))
(let ((?x6818 (ite (> 22803 (+ (+ ?x4854 (- 39 ?x1843)) 24003)) 1 (ite (<= 25203 (+ (+ ?x4854 (- 39 ?x1843)) 24003)) (- 1) 0))))
(let ((?x4218 (ite (>= ?x5561 (+ ?x11124 ?x6818)) 39 (ite (>= ?x5561 (+ ?x4126 ?x5676)) 38 ?x4803))))
(let ((?x6273 (ite (> 22803 (+ (+ ?x4854 (- 40 ?x1843)) 24003)) 1 (ite (<= 25203 (+ (+ ?x4854 (- 40 ?x1843)) 24003)) (- 1) 0))))
(let ((?x5316 (ite (> 22803 (+ (+ ?x4854 (- 41 ?x1843)) 24003)) 1 (ite (<= 25203 (+ (+ ?x4854 (- 41 ?x1843)) 24003)) (- 1) 0))))
(let ((?x3931 (ite (>= ?x5561 (+ ?x3350 ?x5316)) 41 (ite (>= ?x5561 (+ ?x6930 ?x6273)) 40 ?x4218))))
(let ((?x6426 (ite (> 22803 (+ (+ ?x4854 (- 42 ?x1843)) 24003)) 1 (ite (<= 25203 (+ (+ ?x4854 (- 42 ?x1843)) 24003)) (- 1) 0))))
(let ((?x3169 (ite (> 22803 (+ (+ ?x4854 (- 43 ?x1843)) 24003)) 1 (ite (<= 25203 (+ (+ ?x4854 (- 43 ?x1843)) 24003)) (- 1) 0))))
(let ((?x4574 (ite (>= ?x5561 (+ ?x4431 ?x3169)) 43 (ite (>= ?x5561 (+ ?x5399 ?x6426)) 42 ?x3931))))
(let ((?x640 (ite (> 22803 (+ (+ ?x4854 (- 44 ?x1843)) 24003)) 1 (ite (<= 25203 (+ (+ ?x4854 (- 44 ?x1843)) 24003)) (- 1) 0))))
(let ((?x4920 (ite (> 22803 (+ (+ ?x4854 (- 45 ?x1843)) 24003)) 1 (ite (<= 25203 (+ (+ ?x4854 (- 45 ?x1843)) 24003)) (- 1) 0))))
(let ((?x433 (ite (>= ?x5561 (+ ?x2911 ?x4920)) 45 (ite (>= ?x5561 (+ ?x3478 ?x640)) 44 ?x4574))))
(let ((?x6923 (ite (> 22803 (+ (+ ?x4854 (- 46 ?x1843)) 24003)) 1 (ite (<= 25203 (+ (+ ?x4854 (- 46 ?x1843)) 24003)) (- 1) 0))))
(let ((?x3064 (ite (> 22803 (+ (+ ?x4854 (- 47 ?x1843)) 24003)) 1 (ite (<= 25203 (+ (+ ?x4854 (- 47 ?x1843)) 24003)) (- 1) 0))))
(let ((?x1319 (ite (>= ?x5561 (+ ?x928 ?x3064)) 47 (ite (>= ?x5561 (+ ?x6924 ?x6923)) 46 ?x433))))
(let ((?x5728 (+ ?x4854 (- ?x1319 ?x1843))))
(let ((?x6446 (+ ?x5728 24003)))
(let ((?x5301 (+ (select ?x400 ?x1319) (ite (> 22803 ?x6446) 1 (ite (<= 25203 ?x6446) (- 1) 0)))))
(let ((?x5418 (- ?x5561 ?x5301)))
(let ((?x3551 (ite (or (= 22802 ?x6446) (= 25202 ?x6446)) 28 (select ?x306 ?x1319))))
(let (($x1895 (<= (ite (= 1 (ite (>= ?x5418 ?x3551) 1 0)) (- ?x5418 ?x3551) ?x5418) (ite (= 1 (ite (>= ?x5462 ?x977) 1 0)) (- ?x5462 ?x977) ?x5462))))
(let ((?x5306 (ite (>= ?x5462 ?x977) 1 0)))
(let ((?x6667 (+ ?x2638 ?x5306)))
(let ((?x439 (ite (>= ?x5418 ?x3551) 1 0)))
(let ((?x5678 (+ ?x5728 ?x439)))
(not (or (< ?x5678 ?x6667) (and (= ?x5678 ?x6667) $x1895))))))))))))))))))))))))))))))))))))))))))))))))))))))))))))))))))))))))))))))))))))))))))))))))))))))))))))))))))))))))))))))))))))))))))))))))))))))))))))))))))))))))))))))))))))))))))))))))))))))))))))))))))))))))))))))))))))))))))))))))))))))))))))))))))))))))))))))))))))))))))))))))
(check-sat)
